NAME          
ROWS
 N  OBJ
 L  c1
 L  c2
COLUMNS
    MARKER    'MARKER'                 'INTORG'
    x[1]      c1        492
    x[1]      c2        643
    x[1]      OBJ       -294
    x[2]      c1        80
    x[2]      c2        402
    x[2]      OBJ       -166
    x[3]      c1        521
    x[3]      c2        880
    x[3]      OBJ       -578
    x[4]      c1        650
    x[4]      c2        234
    x[4]      OBJ       -799
    x[5]      c1        554
    x[5]      c2        424
    x[5]      OBJ       -76
    x[6]      c1        791
    x[6]      c2        251
    x[6]      OBJ       -786
    x[7]      c1        737
    x[7]      c2        582
    x[7]      OBJ       -551
    x[8]      c1        422
    x[8]      c2        239
    x[8]      OBJ       -969
    x[9]      c1        413
    x[9]      c2        406
    x[9]      OBJ       -556
    x[10]     c1        698
    x[10]     c2        806
    x[10]     OBJ       -811
    x[11]     c1        192
    x[11]     c2        240
    x[11]     OBJ       -462
    x[12]     c1        886
    x[12]     c2        361
    x[12]     OBJ       -987
    x[13]     c1        287
    x[13]     c2        592
    x[13]     OBJ       -511
    x[14]     c1        574
    x[14]     c2        577
    x[14]     OBJ       -917
    x[15]     c1        609
    x[15]     c2        421
    x[15]     OBJ       -184
    x[16]     c1        794
    x[16]     c2        235
    x[16]     OBJ       -921
    x[17]     c1        410
    x[17]     c2        181
    x[17]     OBJ       -182
    x[18]     c1        732
    x[18]     c2        407
    x[18]     OBJ       -666
    x[19]     c1        771
    x[19]     c2        120
    x[19]     OBJ       -286
    x[20]     c1        64
    x[20]     c2        503
    x[20]     OBJ       -694
    x[21]     c1        925
    x[21]     c2        923
    x[21]     OBJ       -640
    x[22]     c1        524
    x[22]     c2        119
    x[22]     OBJ       -504
    x[23]     c1        753
    x[23]     c2        999
    x[23]     OBJ       -897
    x[24]     c1        327
    x[24]     c2        460
    x[24]     OBJ       -454
    x[25]     c1        773
    x[25]     c2        294
    x[25]     OBJ       -756
    x[26]     c1        519
    x[26]     c2        440
    x[26]     OBJ       -506
    x[27]     c1        719
    x[27]     c2        592
    x[27]     OBJ       -49
    x[28]     c1        281
    x[28]     c2        721
    x[28]     OBJ       -501
    x[29]     c1        895
    x[29]     c2        224
    x[29]     OBJ       -448
    x[30]     c1        743
    x[30]     c2        930
    x[30]     OBJ       -408
    x[31]     c1        414
    x[31]     c2        87
    x[31]     OBJ       -451
    x[32]     c1        661
    x[32]     c2        238
    x[32]     OBJ       -469
    x[33]     c1        780
    x[33]     c2        275
    x[33]     OBJ       -292
    x[34]     c1        549
    x[34]     c2        444
    x[34]     OBJ       -363
    x[35]     c1        974
    x[35]     c2        18
    x[35]     OBJ       -137
    x[36]     c1        341
    x[36]     c2        271
    x[36]     OBJ       -605
    x[37]     c1        163
    x[37]     c2        25
    x[37]     OBJ       -417
    x[38]     c1        56
    x[38]     c2        39
    x[38]     OBJ       -587
    x[39]     c1        83
    x[39]     c2        342
    x[39]     OBJ       -32
    x[40]     c1        523
    x[40]     c2        108
    x[40]     OBJ       -275
RHS
    rhs       c1        10840
    rhs       c2        8026
RANGES
BOUNDS
 BV bounds    x[1]
 BV bounds    x[2]
 BV bounds    x[3]
 BV bounds    x[4]
 BV bounds    x[5]
 BV bounds    x[6]
 BV bounds    x[7]
 BV bounds    x[8]
 BV bounds    x[9]
 BV bounds    x[10]
 BV bounds    x[11]
 BV bounds    x[12]
 BV bounds    x[13]
 BV bounds    x[14]
 BV bounds    x[15]
 BV bounds    x[16]
 BV bounds    x[17]
 BV bounds    x[18]
 BV bounds    x[19]
 BV bounds    x[20]
 BV bounds    x[21]
 BV bounds    x[22]
 BV bounds    x[23]
 BV bounds    x[24]
 BV bounds    x[25]
 BV bounds    x[26]
 BV bounds    x[27]
 BV bounds    x[28]
 BV bounds    x[29]
 BV bounds    x[30]
 BV bounds    x[31]
 BV bounds    x[32]
 BV bounds    x[33]
 BV bounds    x[34]
 BV bounds    x[35]
 BV bounds    x[36]
 BV bounds    x[37]
 BV bounds    x[38]
 BV bounds    x[39]
 BV bounds    x[40]
ENDATA
